variable input_dir index .
variable data_file index data.sllod-chunk

units lj
timestep 0.001
atom_style full
bond_style fene
pair_style lj/cut/chunk 2.5
special_bonds fene

read_data ${input_dir}/${data_file}

bond_coeff 1 37.0 1.4 1.0 1.0
pair_coeff 1 1 1.0 1.0 2.5
mass 1 1.0

#velocity	all create 1.0 87287 rot yes
velocity    all ramp vx 0 8 y -0.3 12.5 sum yes

#create some monoatoms
group monoatoms id 101:150
delete_bonds monoatoms multi remove special

reset_mol_ids all
